(declare-fun temp1846_2 () (_ BitVec 64))
(declare-fun temp1846_1 () (_ BitVec 64))
(declare-fun temp1846_3 () (_ BitVec 64))
(declare-fun var3802934 () (_ BitVec 64))
(declare-fun var4002012 () (_ BitVec 64))
(declare-fun temp1846_4 () (_ BitVec 64))
(declare-fun var4133207 () (_ BitVec 64))
(declare-fun temp1846_5 () (_ BitVec 64))
(declare-fun var4133208 () (_ BitVec 64))
(declare-fun temp1846_7 () (_ BitVec 64))
(declare-fun temp1846_6 () (_ BitVec 64))
(declare-fun temp1846_8 () (_ BitVec 64))
(declare-fun var4720680 () (_ BitVec 64))
(declare-fun var4720667 () (_ BitVec 64))
(declare-fun var4720666 () (_ BitVec 64))
(declare-fun temp1846_9 () (_ BitVec 64))
(declare-fun var4720671 () (_ BitVec 64))
(declare-fun temp1846_10 () (_ BitVec 64))
(declare-fun var4720673 () (_ BitVec 64))
(declare-fun temp1846_11 () (_ BitVec 64))
(declare-fun temp1846_12 () (_ BitVec 64))
(declare-fun var5507278 () (_ BitVec 64))
(declare-fun temp1846_13 () (_ BitVec 64))
(declare-fun temp1846_14 () (_ BitVec 64))
(declare-fun var5507324 () (_ BitVec 64))
(declare-fun var5507355 () (_ BitVec 64))
(declare-fun var5507276 () (_ BitVec 64))
(declare-fun var532113 () (_ BitVec 64))
(declare-fun var532115 () (_ BitVec 64))
(declare-fun var6299359 () (_ BitVec 64))
(declare-fun temp1846_16 () (_ BitVec 64))
(declare-fun temp1846_15 () (_ BitVec 64))
(assert (= temp1846_2 #x0000000000000000))
(assert (= temp1846_1 temp1846_2))
(assert (= temp1846_3 #x0000000000000000))
(assert (= var3802934 temp1846_3))
(assert (= var4002012 var3802934))
(assert (= temp1846_4 #x0000000000000000))
(assert (= var4133207 temp1846_4))
(assert (= temp1846_5 #x0000000000000000))
(assert (= var4133208 temp1846_5))
(assert (= temp1846_7 #x0000000000000000))
(assert (= temp1846_6 temp1846_7))
(assert (= temp1846_8 #x0000000000000000))
(assert (= var4720680 temp1846_8))
(assert (= var4720667 var4720680))
(assert (= var4720666 var4720667))
(assert (= temp1846_9 #x0000000000000001))
(assert (= var4720671 (bvand var4720666 temp1846_9)))
(assert (= temp1846_10 #x0000000000000000))
(assert (= var4720673
   (ite (= var4720671 temp1846_10) #x0000000000000001 #x0000000000000000)))
(assert (= temp1846_11 #x0000000000000001))
(assert (= var4720673 temp1846_11))
(assert (= temp1846_12 #x0000000000000001))
(assert (= var5507278 temp1846_12))
(assert (= temp1846_13 #x0000000000000002))
(assert (= temp1846_14 #x0000000000000000))
(assert (= var5507324 (ite (= var5507278 #x0000000000000001) temp1846_13 temp1846_14)))
(assert (= var5507355 var5507324))
(assert (= var5507276 var5507355))
(assert (= var532113 var5507276))
(assert (= var532115 var532113))
(assert (= var6299359 var532115))
(assert (= temp1846_16 #x0000000000000005))
(assert (= temp1846_15 temp1846_16))
(model-add temp1846_2 () (_ BitVec 64) #x0000000000000000)
(model-add temp1846_1 () (_ BitVec 64) #x0000000000000000)
(model-add temp1846_3 () (_ BitVec 64) #x0000000000000000)
(model-add var3802934 () (_ BitVec 64) #x0000000000000000)
(model-add var4002012 () (_ BitVec 64) #x0000000000000000)
(model-add temp1846_4 () (_ BitVec 64) #x0000000000000000)
(model-add var4133207 () (_ BitVec 64) #x0000000000000000)
(model-add temp1846_5 () (_ BitVec 64) #x0000000000000000)
(model-add var4133208 () (_ BitVec 64) #x0000000000000000)
(model-add temp1846_7 () (_ BitVec 64) #x0000000000000000)
(model-add temp1846_6 () (_ BitVec 64) #x0000000000000000)
(model-add temp1846_8 () (_ BitVec 64) #x0000000000000000)
(model-add var4720680 () (_ BitVec 64) #x0000000000000000)
(model-add var4720667 () (_ BitVec 64) #x0000000000000000)
(model-add var4720666 () (_ BitVec 64) #x0000000000000000)
(model-add temp1846_9 () (_ BitVec 64) #x0000000000000001)
(model-add var4720671 () (_ BitVec 64) #x0000000000000000)
(model-add temp1846_10 () (_ BitVec 64) #x0000000000000000)
(model-add var4720673 () (_ BitVec 64) #x0000000000000001)
(model-add temp1846_11 () (_ BitVec 64) #x0000000000000001)




